50
    48    40     3     9    33    53     1    20   100    20    86    85    53    66    59    87    11    52    85    96    10    86    93    76     1    12    81    80    49    15    10    51    39    23     8    24    66     4    67    24    45    64    46    67     4    52    70    60    88    59
     6    10     7     5     8     8     4     7     3     3     2     2     8    10     2     4     9     6     7     1     1     2    10     1     2     8     2     8     6     9     6     2     9     1     2     4     5     1     2     8     1     2     6     6     9     5     6    10     4     5
  1214  1815  1882  1484  1499  1733  1063  1734  1674  1692  1617  1751  1793  1707  1741  1508  1291  1017  1467  1855  1637  1270  1743  1750  1840  1611  1134  1681  1099  1873  1559  1853   968  1465  1185  1798  1347  1611  1116  1419  1699  1391  1144  1553  1794  1875  1678  1208  1025  1220
